branch-and-cut/resultados/B/b12.sol
# Objective value = 174
e[0,8] 1
e[8,0] 1
e[0,18] 1
e[18,0] 1
e[1,17] 0
e[17,1] 0
e[1,25] 0
e[25,1] 0
e[1,52] 0
e[52,1] 0
e[1,62] 1
e[62,1] 1
e[1,71] 1
e[71,1] 1
e[1,72] 0
e[72,1] 0
e[2,11] 1
e[11,2] 1
e[2,72] 0
e[72,2] 0
e[3,2] 1
e[2,3] 1
e[4,63] 0
e[63,4] 0
e[5,47] 0
e[47,5] 0
e[5,64] 0
e[64,5] 0
e[5,68] 0
e[68,5] 0
e[7,65] 1
e[65,7] 1
e[8,68] 1
e[68,8] 1
e[9,13] 0
e[13,9] 0
e[11,34] 1
e[34,11] 1
e[12,15] 0
e[15,12] 0
e[12,57] 0
e[57,12] 0
e[13,48] 0
e[48,13] 0
e[13,51] 0
e[51,13] 0
e[14,21] 0
e[21,14] 0
e[14,68] 0
e[68,14] 0
e[16,38] 0
e[38,16] 0
e[17,68] 1
e[68,17] 1
e[18,9] 0
e[9,18] 0
e[18,11] 0
e[11,18] 0
e[18,43] 1
e[43,18] 1
e[18,59] 0
e[59,18] 0
e[19,65] 1
e[65,19] 1
e[19,74] 0
e[74,19] 0
e[21,3] 0
e[3,21] 0
e[21,5] 0
e[5,21] 0
e[21,22] 0
e[22,21] 0
e[21,67] 0
e[67,21] 0
e[22,32] 1
e[32,22] 1
e[22,50] 0
e[50,22] 0
e[22,54] 1
e[54,22] 1
e[22,56] 1
e[56,22] 1
e[22,66] 1
e[66,22] 1
e[23,12] 0
e[12,23] 0
e[23,50] 0
e[50,23] 0
e[24,73] 0
e[73,24] 0
e[26,21] 0
e[21,26] 0
e[26,28] 1
e[28,26] 1
e[26,38] 1
e[38,26] 1
e[27,15] 0
e[15,27] 0
e[27,21] 0
e[21,27] 0
e[28,10] 0
e[10,28] 0
e[28,56] 0
e[56,28] 0
e[28,74] 0
e[74,28] 0
e[30,4] 0
e[4,30] 0
e[30,39] 1
e[39,30] 1
e[31,1] 1
e[1,31] 1
e[31,18] 0
e[18,31] 0
e[31,22] 1
e[22,31] 1
e[31,26] 0
e[26,31] 0
e[31,33] 1
e[33,31] 1
e[31,55] 0
e[55,31] 0
e[31,69] 0
e[69,31] 0
e[33,30] 1
e[30,33] 1
e[34,62] 1
e[62,34] 1
e[35,38] 0
e[38,35] 0
e[35,58] 0
e[58,35] 0
e[36,2] 0
e[2,36] 0
e[36,18] 1
e[18,36] 1
e[36,42] 0
e[42,36] 0
e[37,15] 0
e[15,37] 0
e[37,28] 1
e[28,37] 1
e[37,45] 1
e[45,37] 1
e[37,49] 0
e[49,37] 0
e[39,25] 0
e[25,39] 0
e[39,36] 1
e[36,39] 1
e[40,71] 0
e[71,40] 0
e[41,2] 0
e[2,41] 0
e[41,23] 0
e[23,41] 0
e[41,24] 0
e[24,41] 0
e[41,73] 1
e[73,41] 1
e[42,33] 1
e[33,42] 1
e[42,49] 0
e[49,42] 0
e[42,50] 0
e[50,42] 0
e[42,58] 0
e[58,42] 0
e[43,11] 0
e[11,43] 0
e[44,9] 0
e[9,44] 0
e[44,19] 0
e[19,44] 0
e[44,65] 0
e[65,44] 0
e[46,4] 0
e[4,46] 0
e[46,57] 0
e[57,46] 0
e[47,16] 0
e[16,47] 0
e[47,44] 0
e[44,47] 0
e[47,50] 1
e[50,47] 1
e[47,67] 1
e[67,47] 1
e[47,70] 1
e[70,47] 1
e[48,64] 0
e[64,48] 0
e[49,22] 1
e[22,49] 1
e[49,35] 0
e[35,49] 0
e[50,4] 1
e[4,50] 1
e[50,13] 0
e[13,50] 0
e[50,19] 0
e[19,50] 0
e[50,70] 0
e[70,50] 0
e[51,26] 0
e[26,51] 0
e[52,49] 1
e[49,52] 1
e[53,3] 0
e[3,53] 0
e[53,17] 0
e[17,53] 0
e[53,39] 0
e[39,53] 0
e[53,55] 0
e[55,53] 0
e[53,58] 0
e[58,53] 0
e[54,26] 0
e[26,54] 0
e[54,42] 0
e[42,54] 0
e[54,46] 0
e[46,54] 0
e[54,47] 0
e[47,54] 0
e[54,48] 1
e[48,54] 1
e[54,63] 0
e[63,54] 0
e[55,41] 0
e[41,55] 0
e[56,14] 1
e[14,56] 1
e[56,27] 0
e[27,56] 0
e[56,40] 1
e[40,56] 1
e[56,53] 0
e[53,56] 0
e[57,20] 0
e[20,57] 0
e[57,35] 1
e[35,57] 1
e[58,70] 0
e[70,58] 0
e[59,20] 0
e[20,59] 0
e[59,37] 0
e[37,59] 0
e[59,46] 0
e[46,59] 0
e[60,9] 1
e[9,60] 1
e[60,29] 0
e[29,60] 0
e[60,30] 1
e[30,60] 1
e[60,68] 0
e[68,60] 0
e[61,34] 1
e[34,61] 1
e[61,69] 0
e[69,61] 0
e[62,61] 0
e[61,62] 0
e[63,8] 1
e[8,63] 1
e[63,28] 1
e[28,63] 1
e[64,53] 0
e[53,64] 0
e[65,35] 1
e[35,65] 1
e[66,0] 0
e[0,66] 0
e[66,6] 1
e[6,66] 1
e[67,13] 0
e[13,67] 0
e[69,27] 0
e[27,69] 0
e[70,10] 0
e[10,70] 0
e[70,57] 1
e[57,70] 1
e[71,7] 1
e[7,71] 1
e[71,37] 0
e[37,71] 0
e[72,29] 0
e[29,72] 0
e[72,60] 0
e[60,72] 0
e[73,0] 0
e[0,73] 0
e[73,28] 1
e[28,73] 1
e[74,34] 0
e[34,74] 0
