branch-and-cut/resultados/B/b12.log

Gurobi 10.0.3 (win64) logging started Sun Dec 17 19:59:40 2023

Set parameter LogFile to value "./resultados/log.log"
Set parameter TimeLimit to value 600
Gurobi Optimizer version 10.0.3 build v10.0.3rc0 (win64)

CPU model: AMD Ryzen 5 5600 6-Core Processor, instruction set [SSE2|AVX|AVX2]
Thread count: 6 physical cores, 12 logical processors, using up to 12 threads

Academic license 2433534 - for non-commercial use only - registered to gm___@gmail.com
Optimize a model with 413 rows, 300 columns and 11778 nonzeros
Model fingerprint: 0xdef0d9be
Variable types: 0 continuous, 300 integer (300 binary)
Coefficient statistics:
  Matrix range     [1e+00, 4e+01]
  Objective range  [5e-01, 5e+00]
  Bounds range     [1e+00, 1e+00]
  RHS range        [1e+00, 1e+00]
Found heuristic solution: objective 854.0000000
Presolve removed 379 rows and 153 columns
Presolve time: 0.00s
Presolved: 34 rows, 147 columns, 141 nonzeros
Variable types: 0 continuous, 147 integer (147 binary)
Root relaxation presolved: 43 rows, 147 columns, 205 nonzeros


Root relaxation: objective 1.010000e+02, 34 iterations, 0.00 seconds (0.00 work units)

    Nodes    |    Current Node    |     Objective Bounds      |     Work
 Expl Unexpl |  Obj  Depth IntInf | Incumbent    BestBd   Gap | It/Node Time

     0     0  101.00000    0    3  854.00000  101.00000  88.2%     -    0s
H    0     0                     627.0000000  101.00000  83.9%     -    0s
     0     0  136.00000    0    -  627.00000  136.00000  78.3%     -    0s
     0     0  140.00000    0    -  627.00000  140.00000  77.7%     -    0s
H    0     0                     274.0000000  143.50000  47.6%     -    0s
     0     0  143.50000    0   10  274.00000  143.50000  47.6%     -    0s
     0     0  151.00000    0    -  274.00000  151.00000  44.9%     -    0s
     0     0  152.00000    0    -  274.00000  152.00000  44.5%     -    0s
H    0     0                     209.0000000  153.00000  26.8%     -    0s
     0     0  153.00000    0   16  209.00000  153.00000  26.8%     -    0s
     0     0  155.00000    0    -  209.00000  155.00000  25.8%     -    0s
     0     0  155.00000    0   10  209.00000  155.00000  25.8%     -    0s
H    0     0                     194.0000000  155.22222  20.0%     -    0s
     0     0  155.22222    0   11  194.00000  155.22222  20.0%     -    0s
H    0     0                     193.0000000  159.00000  17.6%     -    0s
     0     0  159.00000    0   20  193.00000  159.00000  17.6%     -    0s
H    0     0                     192.0000000  159.00000  17.2%     -    0s
     0     2  160.75000    0    8  192.00000  160.75000  16.3%     -    0s
H    1     4                     186.0000000  161.00000  13.4%   0.0    1s
H    4     8                     185.0000000  162.00000  12.4%  14.5    1s
H    5     8                     182.0000000  162.09091  10.9%  12.6    1s
H   11    14                     176.0000000  162.41176  7.72%  13.5    1s
H  124   124                     175.0000000  163.50000  6.57%  11.4    4s
   157   189  164.50000   12   17  175.00000  163.62500  6.50%  11.3    5s
   340   358  164.58333    7   18  175.00000  164.00000  6.29%  12.4   10s
   463   470  166.08621    9   22  175.00000  164.40000  6.06%  13.5   15s
   996  1030  165.37500    8   20  175.00000  165.08696  5.66%  14.3   20s
H 1284  1197                     174.0000000  167.75412  3.59%  13.5   23s
  1323  1223  170.11186   13   46  174.00000  170.11186  2.23%  13.1   25s

Cutting planes:
  User: 193
  Gomory: 7
  Lift-and-project: 6
  MIR: 1
  Flow cover: 38
  Zero half: 88
  RLT: 1
  Lazy constraints: 86

Explored 1748 nodes (32382 simplex iterations) in 29.79 seconds (9.27 work units)
Thread count was 12 (of 12 available processors)

Solution count 10: 174 175 176 ... 209

Optimal solution found (tolerance 1.00e-04)
Best objective 1.740000000000e+02, best bound 1.740000000000e+02, gap 0.0000%

User-callback calls 6056, time in user-callback 23.43 sec
